(set-info :smt-lib-version 2.6)
(set-logic UF)
(set-info :source |Benchmarks from the paper: "Extending Sledgehammer with SMT Solvers" by Jasmin Blanchette, Sascha Bohme, and Lawrence C. Paulson, CADE 2011.  Translated to SMT2 by Andrew Reynolds and Morgan Deters.|)
(set-info :category "industrial")
(set-info :status unknown)
(declare-sort S1 0)
(declare-sort S2 0)
(declare-sort S3 0)
(declare-sort S4 0)
(declare-sort S5 0)
(declare-sort S6 0)
(declare-sort S7 0)
(declare-sort S8 0)
(declare-sort S9 0)
(declare-sort S10 0)
(declare-sort S11 0)
(declare-sort S12 0)
(declare-sort S13 0)
(declare-sort S14 0)
(declare-sort S15 0)
(declare-sort S16 0)
(declare-sort S17 0)
(declare-sort S18 0)
(declare-sort S19 0)
(declare-sort S20 0)
(declare-sort S21 0)
(declare-sort S22 0)
(declare-sort S23 0)
(declare-sort S24 0)
(declare-sort S25 0)
(declare-sort S26 0)
(declare-sort S27 0)
(declare-sort S28 0)
(declare-sort S29 0)
(declare-sort S30 0)
(declare-fun f1 () S1)
(declare-fun f2 () S1)
(declare-fun f3 (S2 S3) S4)
(declare-fun f4 (S5 S4) S2)
(declare-fun f5 () S5)
(declare-fun f6 (S6 S4) S4)
(declare-fun f7 () S6)
(declare-fun f8 () S4)
(declare-fun f9 (S7 S8) S3)
(declare-fun f10 () S7)
(declare-fun f11 (S9 S8) S8)
(declare-fun f12 () S9)
(declare-fun f13 () S9)
(declare-fun f14 () S8)
(declare-fun f15 (S10 S11) S1)
(declare-fun f16 (S12 S11) S10)
(declare-fun f17 () S12)
(declare-fun f18 () S11)
(declare-fun f19 () S11)
(declare-fun f20 () S11)
(declare-fun f21 (S13 S11) S4)
(declare-fun f22 (S14 S11) S13)
(declare-fun f23 () S14)
(declare-fun f24 (S15 S3) S11)
(declare-fun f25 (S16 S11) S15)
(declare-fun f26 () S16)
(declare-fun f27 (S17 S11) S11)
(declare-fun f28 () S17)
(declare-fun f29 (S18 S3) S3)
(declare-fun f30 (S19 S3) S18)
(declare-fun f31 () S19)
(declare-fun f32 () S3)
(declare-fun f33 (S20 S3) S8)
(declare-fun f34 (S21 S8) S20)
(declare-fun f35 () S21)
(declare-fun f36 () S8)
(declare-fun f37 () S4)
(declare-fun f38 (S22 S8) S1)
(declare-fun f39 (S23 S8) S22)
(declare-fun f40 () S23)
(declare-fun f41 (S24 S3) S1)
(declare-fun f42 (S25 S3) S24)
(declare-fun f43 () S25)
(declare-fun f44 () S9)
(declare-fun f45 (S26 S8) S11)
(declare-fun f46 () S26)
(declare-fun f47 (S27 S8) S4)
(declare-fun f48 () S27)
(declare-fun f49 () S19)
(declare-fun f50 () S25)
(declare-fun f51 () S23)
(declare-fun f52 () S12)
(declare-fun f53 (S28 S8) S9)
(declare-fun f54 () S28)
(declare-fun f55 (S29 S4) S6)
(declare-fun f56 () S29)
(declare-fun f57 (S30 S11) S17)
(declare-fun f58 () S30)
(assert (not (= f1 f2)))
(assert (not (= (f3 (f4 f5 (f6 f7 f8)) (f9 f10 (f11 f12 (f11 f13 f14)))) f8)))
(assert (= (f15 (f16 f17 f18) f19) f1))
(assert (= f20 f18))
(assert (= f8 (f21 (f22 f23 f19) f20)))
(assert (= (f24 (f25 f26 (f27 f28 f19)) (f9 f10 (f11 f12 (f11 f13 f14)))) f19))
(assert (= f8 (f21 (f22 f23 f19) f20)))
(assert (= (f24 (f25 f26 (f27 f28 f19)) (f9 f10 (f11 f12 (f11 f13 f14)))) f19))
(assert (=> (forall ((?v0 S11) (?v1 S11)) (=> (= f8 (f21 (f22 f23 ?v0) ?v1)) false)) false))
(assert (= (f29 (f30 f31 f32) (f9 f10 (f11 f12 (f11 f13 f14)))) f32))
(assert (= (f33 (f34 f35 f36) (f9 f10 (f11 f12 (f11 f13 f14)))) f36))
(assert (= (f24 (f25 f26 f18) (f9 f10 (f11 f12 (f11 f13 f14)))) f18))
(assert (= (f3 (f4 f5 f37) (f9 f10 (f11 f12 (f11 f13 f14)))) f37))
(assert (forall ((?v0 S8)) (= (= (f33 (f34 f35 ?v0) (f9 f10 (f11 f12 (f11 f13 f14)))) f36) (= ?v0 f36))))
(assert (forall ((?v0 S11)) (= (= (f24 (f25 f26 ?v0) (f9 f10 (f11 f12 (f11 f13 f14)))) f18) (= ?v0 f18))))
(assert (forall ((?v0 S4)) (= (= (f3 (f4 f5 ?v0) (f9 f10 (f11 f12 (f11 f13 f14)))) f37) (= ?v0 f37))))
(assert (= (f11 f12 f14) f14))
(assert (forall ((?v0 S8)) (= (= f14 (f11 f12 ?v0)) (= f14 ?v0))))
(assert (forall ((?v0 S8)) (= (= (f11 f12 ?v0) f14) (= ?v0 f14))))
(assert (forall ((?v0 S8) (?v1 S8)) (= (= (f11 f12 ?v0) (f11 f13 ?v1)) false)))
(assert (forall ((?v0 S8) (?v1 S8)) (= (= (f11 f13 ?v0) (f11 f12 ?v1)) false)))
(assert (forall ((?v0 S8)) (= (= f14 (f11 f13 ?v0)) false)))
(assert (forall ((?v0 S8)) (= (= (f11 f13 ?v0) f14) false)))
(assert (forall ((?v0 S8)) (= (f38 (f39 f40 f36) (f33 (f34 f35 ?v0) (f9 f10 (f11 f12 (f11 f13 f14))))) f1)))
(assert (forall ((?v0 S11)) (= (f15 (f16 f17 f18) (f24 (f25 f26 ?v0) (f9 f10 (f11 f12 (f11 f13 f14))))) f1)))
(assert (forall ((?v0 S3) (?v1 S3)) (let ((?v_0 (f9 f10 (f11 f12 (f11 f13 f14))))) (=> (= (f41 (f42 f43 (f29 (f30 f31 ?v0) ?v_0)) (f29 (f30 f31 ?v1) ?v_0)) f1) (=> (= (f41 (f42 f43 f32) ?v1) f1) (= (f41 (f42 f43 ?v0) ?v1) f1))))))
(assert (forall ((?v0 S8) (?v1 S8)) (let ((?v_0 (f9 f10 (f11 f12 (f11 f13 f14))))) (=> (= (f38 (f39 f40 (f33 (f34 f35 ?v0) ?v_0)) (f33 (f34 f35 ?v1) ?v_0)) f1) (=> (= (f38 (f39 f40 f36) ?v1) f1) (= (f38 (f39 f40 ?v0) ?v1) f1))))))
(assert (forall ((?v0 S11) (?v1 S11)) (let ((?v_0 (f9 f10 (f11 f12 (f11 f13 f14))))) (=> (= (f15 (f16 f17 (f24 (f25 f26 ?v0) ?v_0)) (f24 (f25 f26 ?v1) ?v_0)) f1) (=> (= (f15 (f16 f17 f18) ?v1) f1) (= (f15 (f16 f17 ?v0) ?v1) f1))))))
(assert (forall ((?v0 S3) (?v1 S3)) (let ((?v_0 (f9 f10 (f11 f12 (f11 f13 f14)))) (?v_1 (f42 f43 f32))) (=> (= (f29 (f30 f31 ?v0) ?v_0) (f29 (f30 f31 ?v1) ?v_0)) (=> (= (f41 ?v_1 ?v0) f1) (=> (= (f41 ?v_1 ?v1) f1) (= ?v0 ?v1)))))))
(assert (forall ((?v0 S8) (?v1 S8)) (let ((?v_0 (f9 f10 (f11 f12 (f11 f13 f14)))) (?v_1 (f39 f40 f36))) (=> (= (f33 (f34 f35 ?v0) ?v_0) (f33 (f34 f35 ?v1) ?v_0)) (=> (= (f38 ?v_1 ?v0) f1) (=> (= (f38 ?v_1 ?v1) f1) (= ?v0 ?v1)))))))
(assert (forall ((?v0 S11) (?v1 S11)) (let ((?v_0 (f9 f10 (f11 f12 (f11 f13 f14)))) (?v_1 (f16 f17 f18))) (=> (= (f24 (f25 f26 ?v0) ?v_0) (f24 (f25 f26 ?v1) ?v_0)) (=> (= (f15 ?v_1 ?v0) f1) (=> (= (f15 ?v_1 ?v1) f1) (= ?v0 ?v1)))))))
(assert (= (f15 (f16 f17 f18) f19) f1))
(assert (= f20 f18))
(assert (forall ((?v0 S8) (?v1 S8)) (= (= (f38 (f39 f40 (f11 f44 ?v0)) (f11 f44 ?v1)) f1) (= (f38 (f39 f40 ?v0) ?v1) f1))))
(assert (forall ((?v0 S8) (?v1 S8)) (= (= (f15 (f16 f17 (f45 f46 ?v0)) (f45 f46 ?v1)) f1) (= (f38 (f39 f40 ?v0) ?v1) f1))))
(assert (forall ((?v0 S8) (?v1 S8)) (= (= (f38 (f39 f40 (f11 f13 ?v0)) (f11 f13 ?v1)) f1) (= (f38 (f39 f40 ?v0) ?v1) f1))))
(assert (forall ((?v0 S8) (?v1 S8)) (= (= (f38 (f39 f40 (f11 f13 ?v0)) (f11 f13 ?v1)) f1) (= (f38 (f39 f40 ?v0) ?v1) f1))))
(assert (= (= (f38 (f39 f40 f14) f14) f1) true))
(assert (forall ((?v0 S8) (?v1 S8)) (= (= (f38 (f39 f40 (f11 f12 ?v0)) (f11 f12 ?v1)) f1) (= (f38 (f39 f40 ?v0) ?v1) f1))))
(assert (forall ((?v0 S8) (?v1 S8)) (= (= (f38 (f39 f40 (f11 f12 ?v0)) (f11 f12 ?v1)) f1) (= (f38 (f39 f40 ?v0) ?v1) f1))))
(assert (= f14 f36))
(assert (forall ((?v0 S8) (?v1 S8)) (let ((?v_0 (f39 f40 ?v0))) (= (= (f41 (f42 f43 (f9 f10 ?v0)) (f9 f10 ?v1)) f1) (ite (= (f38 ?v_0 ?v1) f1) true (= (f38 ?v_0 f14) f1))))))
(assert (forall ((?v0 S8)) (= (= (f9 f10 ?v0) f32) (= (f38 (f39 f40 ?v0) f14) f1))))
(assert (forall ((?v0 S8)) (= (= f32 (f9 f10 ?v0)) (= (f38 (f39 f40 ?v0) f14) f1))))
(assert (forall ((?v0 S8)) (= (= (f38 (f39 f40 (f11 f44 ?v0)) f36) f1) (= (f38 (f39 f40 ?v0) f14) f1))))
(assert (forall ((?v0 S8)) (= (= (f15 (f16 f17 (f45 f46 ?v0)) f18) f1) (= (f38 (f39 f40 ?v0) f14) f1))))
(assert (forall ((?v0 S8)) (= (= (f38 (f39 f40 f36) (f11 f44 ?v0)) f1) (= (f38 (f39 f40 f14) ?v0) f1))))
(assert (forall ((?v0 S8)) (= (= (f15 (f16 f17 f18) (f45 f46 ?v0)) f1) (= (f38 (f39 f40 f14) ?v0) f1))))
(assert (forall ((?v0 S8)) (let ((?v_0 (f39 f40 f14))) (= (= (f38 ?v_0 (f11 f13 ?v0)) f1) (= (f38 ?v_0 ?v0) f1)))))
(assert (forall ((?v0 S8) (?v1 S8)) (= (= (f38 (f39 f40 (f11 f12 ?v0)) (f11 f13 ?v1)) f1) (= (f38 (f39 f40 ?v0) ?v1) f1))))
(assert (forall ((?v0 S8) (?v1 S8)) (= (= (f38 (f39 f40 (f11 f12 ?v0)) (f11 f13 ?v1)) f1) (= (f38 (f39 f40 ?v0) ?v1) f1))))
(assert (forall ((?v0 S8)) (= (= (f38 (f39 f40 (f11 f12 ?v0)) f14) f1) (= (f38 (f39 f40 ?v0) f14) f1))))
(assert (forall ((?v0 S8)) (let ((?v_0 (f39 f40 f14))) (= (= (f38 ?v_0 (f11 f12 ?v0)) f1) (= (f38 ?v_0 ?v0) f1)))))
(assert (= (f9 f10 f14) f32))
(assert (= f32 (f9 f10 f14)))
(assert (forall ((?v0 S8) (?v1 S8)) (= (= (f11 f44 ?v0) (f11 f44 ?v1)) (= ?v0 ?v1))))
(assert (forall ((?v0 S8) (?v1 S8)) (= (= (f47 f48 ?v0) (f47 f48 ?v1)) (= ?v0 ?v1))))
(assert (forall ((?v0 S8) (?v1 S8)) (= (= (f45 f46 ?v0) (f45 f46 ?v1)) (= ?v0 ?v1))))
(assert (forall ((?v0 S8) (?v1 S8)) (let ((?v_0 (f11 f44 ?v0))) (= (= ?v_0 ?v1) (= ?v1 ?v_0)))))
(assert (forall ((?v0 S8) (?v1 S3)) (let ((?v_0 (f9 f10 ?v0))) (= (= ?v_0 ?v1) (= ?v1 ?v_0)))))
(assert (forall ((?v0 S8) (?v1 S4)) (let ((?v_0 (f47 f48 ?v0))) (= (= ?v_0 ?v1) (= ?v1 ?v_0)))))
(assert (forall ((?v0 S8) (?v1 S11)) (let ((?v_0 (f45 f46 ?v0))) (= (= ?v_0 ?v1) (= ?v1 ?v_0)))))
(assert (forall ((?v0 S8) (?v1 S8)) (= (= (f11 f13 ?v0) (f11 f13 ?v1)) (= ?v0 ?v1))))
(assert (= (= f14 f14) true))
(assert (forall ((?v0 S8) (?v1 S8)) (= (= (f11 f12 ?v0) (f11 f12 ?v1)) (= ?v0 ?v1))))
(assert (= (f9 f10 f14) f32))
(assert (= (f11 f44 f14) f36))
(assert (= (f45 f46 f14) f18))
(assert (= (f47 f48 f14) f37))
(assert (= (f11 f44 f14) f36))
(assert (= (f45 f46 f14) f18))
(assert (= (f47 f48 f14) f37))
(assert (= f36 (f11 f44 f14)))
(assert (= f18 (f45 f46 f14)))
(assert (= f37 (f47 f48 f14)))
(assert (forall ((?v0 S11) (?v1 S11)) (=> (= (f24 (f25 f26 ?v0) (f9 f10 (f11 f12 (f11 f13 f14)))) ?v1) (=> (= (f15 (f16 f17 f18) ?v0) f1) (= (f27 f28 ?v1) ?v0)))))
(assert (forall ((?v0 S11)) (=> (= (f15 (f16 f17 f18) ?v0) f1) (= (f24 (f25 f26 (f27 f28 ?v0)) (f9 f10 (f11 f12 (f11 f13 f14)))) ?v0))))
(assert (forall ((?v0 S11)) (= (= (f24 (f25 f26 (f27 f28 ?v0)) (f9 f10 (f11 f12 (f11 f13 f14)))) ?v0) (= (f15 (f16 f17 f18) ?v0) f1))))
(assert (forall ((?v0 S3) (?v1 S8)) (let ((?v_0 (f9 f10 ?v1))) (= (= (f29 (f30 f31 ?v0) ?v_0) f32) (and (= ?v0 f32) (not (= ?v_0 f32)))))))
(assert (forall ((?v0 S8) (?v1 S8)) (let ((?v_0 (f9 f10 ?v1))) (= (= (f33 (f34 f35 ?v0) ?v_0) f36) (and (= ?v0 f36) (not (= ?v_0 f32)))))))
(assert (forall ((?v0 S11) (?v1 S8)) (let ((?v_0 (f9 f10 ?v1))) (= (= (f24 (f25 f26 ?v0) ?v_0) f18) (and (= ?v0 f18) (not (= ?v_0 f32)))))))
(assert (forall ((?v0 S4) (?v1 S8)) (let ((?v_0 (f9 f10 ?v1))) (= (= (f3 (f4 f5 ?v0) ?v_0) f37) (and (= ?v0 f37) (not (= ?v_0 f32)))))))
(assert (forall ((?v0 S3) (?v1 S3) (?v2 S3)) (=> (= (f41 (f42 f43 ?v0) ?v1) f1) (=> (= (f41 (f42 f43 f32) ?v0) f1) (= (f41 (f42 f43 (f29 (f30 f31 ?v0) ?v2)) (f29 (f30 f31 ?v1) ?v2)) f1)))))
(assert (forall ((?v0 S8) (?v1 S8) (?v2 S3)) (=> (= (f38 (f39 f40 ?v0) ?v1) f1) (=> (= (f38 (f39 f40 f36) ?v0) f1) (= (f38 (f39 f40 (f33 (f34 f35 ?v0) ?v2)) (f33 (f34 f35 ?v1) ?v2)) f1)))))
(assert (forall ((?v0 S11) (?v1 S11) (?v2 S3)) (=> (= (f15 (f16 f17 ?v0) ?v1) f1) (=> (= (f15 (f16 f17 f18) ?v0) f1) (= (f15 (f16 f17 (f24 (f25 f26 ?v0) ?v2)) (f24 (f25 f26 ?v1) ?v2)) f1)))))
(assert (forall ((?v0 S3) (?v1 S3)) (let ((?v_0 (f42 f43 f32))) (=> (= (f41 ?v_0 ?v0) f1) (= (f41 ?v_0 (f29 (f30 f31 ?v0) ?v1)) f1)))))
(assert (forall ((?v0 S8) (?v1 S3)) (let ((?v_0 (f39 f40 f36))) (=> (= (f38 ?v_0 ?v0) f1) (= (f38 ?v_0 (f33 (f34 f35 ?v0) ?v1)) f1)))))
(assert (forall ((?v0 S11) (?v1 S3)) (let ((?v_0 (f16 f17 f18))) (=> (= (f15 ?v_0 ?v0) f1) (= (f15 ?v_0 (f24 (f25 f26 ?v0) ?v1)) f1)))))
(assert (forall ((?v0 S3)) (= (f41 (f42 f43 ?v0) ?v0) f1)))
(assert (forall ((?v0 S8)) (= (f38 (f39 f40 ?v0) ?v0) f1)))
(assert (forall ((?v0 S11)) (= (f15 (f16 f17 ?v0) ?v0) f1)))
(assert (forall ((?v0 S11) (?v1 S3)) (= (f27 f28 (f24 (f25 f26 ?v0) ?v1)) (f24 (f25 f26 (f27 f28 ?v0)) ?v1))))
(assert (forall ((?v0 S8) (?v1 S3)) (= (f38 (f39 f40 f36) (f33 (f34 f35 ?v0) (f29 (f30 f49 (f9 f10 (f11 f12 (f11 f13 f14)))) ?v1))) f1)))
(assert (forall ((?v0 S11) (?v1 S3)) (= (f15 (f16 f17 f18) (f24 (f25 f26 ?v0) (f29 (f30 f49 (f9 f10 (f11 f12 (f11 f13 f14)))) ?v1))) f1)))
(assert (forall ((?v0 S3) (?v1 S3)) (let ((?v_0 (f9 f10 (f11 f12 (f11 f13 f14))))) (=> (= (f41 (f42 f50 (f29 (f30 f31 ?v0) ?v_0)) (f29 (f30 f31 ?v1) ?v_0)) f1) (=> (= (f41 (f42 f43 f32) ?v1) f1) (= (f41 (f42 f50 ?v0) ?v1) f1))))))
(assert (forall ((?v0 S8) (?v1 S8)) (let ((?v_0 (f9 f10 (f11 f12 (f11 f13 f14))))) (=> (= (f38 (f39 f51 (f33 (f34 f35 ?v0) ?v_0)) (f33 (f34 f35 ?v1) ?v_0)) f1) (=> (= (f38 (f39 f40 f36) ?v1) f1) (= (f38 (f39 f51 ?v0) ?v1) f1))))))
(assert (forall ((?v0 S11) (?v1 S11)) (let ((?v_0 (f9 f10 (f11 f12 (f11 f13 f14))))) (=> (= (f15 (f16 f52 (f24 (f25 f26 ?v0) ?v_0)) (f24 (f25 f26 ?v1) ?v_0)) f1) (=> (= (f15 (f16 f17 f18) ?v1) f1) (= (f15 (f16 f52 ?v0) ?v1) f1))))))
(assert (forall ((?v0 S8)) (= (f38 (f39 f40 ?v0) ?v0) f1)))
(assert (forall ((?v0 S3) (?v1 S3)) (let ((?v_0 (f42 f50 f32))) (= (= (f41 ?v_0 (f29 (f30 f31 ?v0) ?v1)) f1) (or (= (f41 ?v_0 ?v0) f1) (= ?v1 f32))))))
(assert (forall ((?v0 S3) (?v1 S3)) (let ((?v_0 (f42 f50 f32))) (= (= (f41 ?v_0 (f29 (f30 f31 ?v0) ?v1)) f1) (or (= ?v1 f32) (= (f41 ?v_0 ?v0) f1))))))
(assert (forall ((?v0 S8) (?v1 S8)) (or (= (f38 (f39 f40 ?v0) ?v1) f1) (= (f38 (f39 f40 ?v1) ?v0) f1))))
(assert (forall ((?v0 S8) (?v1 S8)) (= (= (f38 (f39 f51 ?v0) ?v1) f1) (and (= (f38 (f39 f40 ?v0) ?v1) f1) (not (= ?v0 ?v1))))))
(assert (forall ((?v0 S8) (?v1 S8)) (= (= (f38 (f39 f40 (f11 f44 ?v0)) (f11 f44 ?v1)) f1) (= (f38 (f39 f40 ?v0) ?v1) f1))))
(assert (forall ((?v0 S8) (?v1 S3) (?v2 S3)) (let ((?v_0 (f34 f35 ?v0))) (= (f33 (f34 f35 (f33 ?v_0 ?v1)) ?v2) (f33 ?v_0 (f29 (f30 f49 ?v1) ?v2))))))
(assert (forall ((?v0 S3) (?v1 S3) (?v2 S3)) (let ((?v_0 (f30 f31 ?v0))) (=> (= (f41 (f42 f50 f32) ?v0) f1) (=> (= (f41 (f42 f50 (f29 ?v_0 ?v1)) (f29 ?v_0 ?v2)) f1) (= (f41 (f42 f50 ?v1) ?v2) f1))))))
(assert (forall ((?v0 S8) (?v1 S8) (?v2 S8)) (let ((?v_0 (f39 f40 ?v0))) (=> (= (f38 ?v_0 ?v1) f1) (=> (= (f38 (f39 f40 ?v1) ?v2) f1) (= (f38 ?v_0 ?v2) f1))))))
(assert (forall ((?v0 S8) (?v1 S8)) (=> (= (f38 (f39 f40 ?v0) ?v1) f1) (=> (= (f38 (f39 f40 ?v1) ?v0) f1) (= ?v0 ?v1)))))
(assert (forall ((?v0 S11) (?v1 S11)) (=> (=> (= (f15 (f16 f52 ?v0) ?v1) f1) false) (=> (=> (= ?v0 ?v1) false) (=> (=> (= (f15 (f16 f52 ?v1) ?v0) f1) false) false)))))
(assert (forall ((?v0 S8) (?v1 S8)) (=> (=> (= (f38 (f39 f51 ?v0) ?v1) f1) false) (=> (=> (= ?v0 ?v1) false) (=> (=> (= (f38 (f39 f51 ?v1) ?v0) f1) false) false)))))
(assert (forall ((?v0 S3) (?v1 S3)) (=> (=> (= (f41 (f42 f50 ?v0) ?v1) f1) false) (=> (=> (= ?v0 ?v1) false) (=> (=> (= (f41 (f42 f50 ?v1) ?v0) f1) false) false)))))
(assert (forall ((?v0 S11) (?v1 S11)) (=> (= (f15 (f16 f52 ?v0) ?v1) f1) (=> (=> (not false) (= (f15 (f16 f52 ?v1) ?v0) f1)) false))))
(assert (forall ((?v0 S8) (?v1 S8)) (=> (= (f38 (f39 f51 ?v0) ?v1) f1) (=> (=> (not false) (= (f38 (f39 f51 ?v1) ?v0) f1)) false))))
(assert (forall ((?v0 S3) (?v1 S3)) (=> (= (f41 (f42 f50 ?v0) ?v1) f1) (=> (=> (not false) (= (f41 (f42 f50 ?v1) ?v0) f1)) false))))
(assert (forall ((?v0 S11) (?v1 S11) (?v2 S11)) (let ((?v_0 (f16 f52 ?v2))) (=> (= (f15 (f16 f52 ?v0) ?v1) f1) (=> (= (f15 ?v_0 ?v0) f1) (= (f15 ?v_0 ?v1) f1))))))
(assert (forall ((?v0 S8) (?v1 S8) (?v2 S8)) (let ((?v_0 (f39 f51 ?v2))) (=> (= (f38 (f39 f51 ?v0) ?v1) f1) (=> (= (f38 ?v_0 ?v0) f1) (= (f38 ?v_0 ?v1) f1))))))
(assert (forall ((?v0 S3) (?v1 S3) (?v2 S3)) (let ((?v_0 (f42 f50 ?v2))) (=> (= (f41 (f42 f50 ?v0) ?v1) f1) (=> (= (f41 ?v_0 ?v0) f1) (= (f41 ?v_0 ?v1) f1))))))
(assert (forall ((?v0 S11) (?v1 S11) (?v2 S11)) (let ((?v_0 (f16 f52 ?v0))) (=> (= (f15 ?v_0 ?v1) f1) (=> (= (f15 (f16 f52 ?v1) ?v2) f1) (= (f15 ?v_0 ?v2) f1))))))
(assert (forall ((?v0 S8) (?v1 S8) (?v2 S8)) (let ((?v_0 (f39 f51 ?v0))) (=> (= (f38 ?v_0 ?v1) f1) (=> (= (f38 (f39 f51 ?v1) ?v2) f1) (= (f38 ?v_0 ?v2) f1))))))
(assert (forall ((?v0 S3) (?v1 S3) (?v2 S3)) (let ((?v_0 (f42 f50 ?v0))) (=> (= (f41 ?v_0 ?v1) f1) (=> (= (f41 (f42 f50 ?v1) ?v2) f1) (= (f41 ?v_0 ?v2) f1))))))
(assert (forall ((?v0 S11) (?v1 S11) (?v2 S11)) (=> (= (f15 (f16 f52 ?v0) ?v1) f1) (=> (= ?v0 ?v2) (= (f15 (f16 f52 ?v2) ?v1) f1)))))
(assert (forall ((?v0 S8) (?v1 S8) (?v2 S8)) (=> (= (f38 (f39 f51 ?v0) ?v1) f1) (=> (= ?v0 ?v2) (= (f38 (f39 f51 ?v2) ?v1) f1)))))
(assert (forall ((?v0 S3) (?v1 S3) (?v2 S3)) (=> (= (f41 (f42 f50 ?v0) ?v1) f1) (=> (= ?v0 ?v2) (= (f41 (f42 f50 ?v2) ?v1) f1)))))
(assert (forall ((?v0 S11) (?v1 S11) (?v2 S11)) (let ((?v_0 (f16 f52 ?v0))) (=> (= (f15 ?v_0 ?v1) f1) (=> (= ?v1 ?v2) (= (f15 ?v_0 ?v2) f1))))))
(assert (forall ((?v0 S8) (?v1 S8) (?v2 S8)) (let ((?v_0 (f39 f51 ?v0))) (=> (= (f38 ?v_0 ?v1) f1) (=> (= ?v1 ?v2) (= (f38 ?v_0 ?v2) f1))))))
(assert (forall ((?v0 S3) (?v1 S3) (?v2 S3)) (let ((?v_0 (f42 f50 ?v0))) (=> (= (f41 ?v_0 ?v1) f1) (=> (= ?v1 ?v2) (= (f41 ?v_0 ?v2) f1))))))
(assert (forall ((?v0 S11) (?v1 S11) (?v2 S11)) (let ((?v_0 (f16 f52 ?v2))) (=> (= ?v0 ?v1) (=> (= (f15 ?v_0 ?v1) f1) (= (f15 ?v_0 ?v0) f1))))))
(assert (forall ((?v0 S8) (?v1 S8) (?v2 S8)) (let ((?v_0 (f39 f51 ?v2))) (=> (= ?v0 ?v1) (=> (= (f38 ?v_0 ?v1) f1) (= (f38 ?v_0 ?v0) f1))))))
(assert (forall ((?v0 S3) (?v1 S3) (?v2 S3)) (let ((?v_0 (f42 f50 ?v2))) (=> (= ?v0 ?v1) (=> (= (f41 ?v_0 ?v1) f1) (= (f41 ?v_0 ?v0) f1))))))
(assert (forall ((?v0 S11) (?v1 S11) (?v2 S11)) (=> (= ?v0 ?v1) (=> (= (f15 (f16 f52 ?v1) ?v2) f1) (= (f15 (f16 f52 ?v0) ?v2) f1)))))
(assert (forall ((?v0 S8) (?v1 S8) (?v2 S8)) (=> (= ?v0 ?v1) (=> (= (f38 (f39 f51 ?v1) ?v2) f1) (= (f38 (f39 f51 ?v0) ?v2) f1)))))
(assert (forall ((?v0 S3) (?v1 S3) (?v2 S3)) (=> (= ?v0 ?v1) (=> (= (f41 (f42 f50 ?v1) ?v2) f1) (= (f41 (f42 f50 ?v0) ?v2) f1)))))
(assert (forall ((?v0 S11) (?v1 S11)) (=> (= (f15 (f16 f52 ?v0) ?v1) f1) (=> (= (f15 (f16 f52 ?v1) ?v0) f1) false))))
(assert (forall ((?v0 S8) (?v1 S8)) (=> (= (f38 (f39 f51 ?v0) ?v1) f1) (=> (= (f38 (f39 f51 ?v1) ?v0) f1) false))))
(assert (forall ((?v0 S3) (?v1 S3)) (=> (= (f41 (f42 f50 ?v0) ?v1) f1) (=> (= (f41 (f42 f50 ?v1) ?v0) f1) false))))
(assert (forall ((?v0 S11) (?v1 S11)) (=> (= (f15 (f16 f52 ?v0) ?v1) f1) (=> (= (f15 (f16 f52 ?v1) ?v0) f1) false))))
(assert (forall ((?v0 S8) (?v1 S8)) (=> (= (f38 (f39 f51 ?v0) ?v1) f1) (=> (= (f38 (f39 f51 ?v1) ?v0) f1) false))))
(assert (forall ((?v0 S3) (?v1 S3)) (=> (= (f41 (f42 f50 ?v0) ?v1) f1) (=> (= (f41 (f42 f50 ?v1) ?v0) f1) false))))
(assert (forall ((?v0 S11) (?v1 S11) (?v2 S1)) (=> (= (f15 (f16 f52 ?v0) ?v1) f1) (= (=> (= (f15 (f16 f52 ?v1) ?v0) f1) (= ?v2 f1)) true))))
(assert (forall ((?v0 S8) (?v1 S8) (?v2 S1)) (=> (= (f38 (f39 f51 ?v0) ?v1) f1) (= (=> (= (f38 (f39 f51 ?v1) ?v0) f1) (= ?v2 f1)) true))))
(assert (forall ((?v0 S3) (?v1 S3) (?v2 S1)) (=> (= (f41 (f42 f50 ?v0) ?v1) f1) (= (=> (= (f41 (f42 f50 ?v1) ?v0) f1) (= ?v2 f1)) true))))
(assert (forall ((?v0 S11) (?v1 S11)) (=> (= (f15 (f16 f52 ?v0) ?v1) f1) (= (= ?v1 ?v0) false))))
(assert (forall ((?v0 S8) (?v1 S8)) (=> (= (f38 (f39 f51 ?v0) ?v1) f1) (= (= ?v1 ?v0) false))))
(assert (forall ((?v0 S3) (?v1 S3)) (=> (= (f41 (f42 f50 ?v0) ?v1) f1) (= (= ?v1 ?v0) false))))
(assert (forall ((?v0 S11) (?v1 S11)) (=> (= (f15 (f16 f52 ?v0) ?v1) f1) (= (= ?v0 ?v1) false))))
(assert (forall ((?v0 S8) (?v1 S8)) (=> (= (f38 (f39 f51 ?v0) ?v1) f1) (= (= ?v0 ?v1) false))))
(assert (forall ((?v0 S3) (?v1 S3)) (=> (= (f41 (f42 f50 ?v0) ?v1) f1) (= (= ?v0 ?v1) false))))
(assert (forall ((?v0 S11) (?v1 S11)) (=> (= (f15 (f16 f52 ?v0) ?v1) f1) (= (not (= (f15 (f16 f52 ?v1) ?v0) f1)) true))))
(assert (forall ((?v0 S8) (?v1 S8)) (=> (= (f38 (f39 f51 ?v0) ?v1) f1) (= (not (= (f38 (f39 f51 ?v1) ?v0) f1)) true))))
(assert (forall ((?v0 S3) (?v1 S3)) (=> (= (f41 (f42 f50 ?v0) ?v1) f1) (= (not (= (f41 (f42 f50 ?v1) ?v0) f1)) true))))
(assert (forall ((?v0 S11) (?v1 S11)) (=> (= (f15 (f16 f52 ?v0) ?v1) f1) (not (= (f15 (f16 f52 ?v1) ?v0) f1)))))
(assert (forall ((?v0 S8) (?v1 S8)) (=> (= (f38 (f39 f51 ?v0) ?v1) f1) (not (= (f38 (f39 f51 ?v1) ?v0) f1)))))
(assert (forall ((?v0 S3) (?v1 S3)) (=> (= (f41 (f42 f50 ?v0) ?v1) f1) (not (= (f41 (f42 f50 ?v1) ?v0) f1)))))
(assert (forall ((?v0 S11) (?v1 S11)) (=> (= (f15 (f16 f52 ?v0) ?v1) f1) (not (= ?v0 ?v1)))))
(assert (forall ((?v0 S8) (?v1 S8)) (=> (= (f38 (f39 f51 ?v0) ?v1) f1) (not (= ?v0 ?v1)))))
(assert (forall ((?v0 S3) (?v1 S3)) (=> (= (f41 (f42 f50 ?v0) ?v1) f1) (not (= ?v0 ?v1)))))
(assert (forall ((?v0 S11) (?v1 S11)) (=> (not (= ?v0 ?v1)) (=> (=> (= (f15 (f16 f52 ?v0) ?v1) f1) false) (=> (=> (= (f15 (f16 f52 ?v1) ?v0) f1) false) false)))))
(assert (forall ((?v0 S8) (?v1 S8)) (=> (not (= ?v0 ?v1)) (=> (=> (= (f38 (f39 f51 ?v0) ?v1) f1) false) (=> (=> (= (f38 (f39 f51 ?v1) ?v0) f1) false) false)))))
(assert (forall ((?v0 S3) (?v1 S3)) (=> (not (= ?v0 ?v1)) (=> (=> (= (f41 (f42 f50 ?v0) ?v1) f1) false) (=> (=> (= (f41 (f42 f50 ?v1) ?v0) f1) false) false)))))
(assert (forall ((?v0 S11) (?v1 S11)) (=> (not (= (f15 (f16 f52 ?v0) ?v1) f1)) (= (not (= (f15 (f16 f52 ?v1) ?v0) f1)) (= ?v1 ?v0)))))
(assert (forall ((?v0 S8) (?v1 S8)) (=> (not (= (f38 (f39 f51 ?v0) ?v1) f1)) (= (not (= (f38 (f39 f51 ?v1) ?v0) f1)) (= ?v1 ?v0)))))
(assert (forall ((?v0 S3) (?v1 S3)) (=> (not (= (f41 (f42 f50 ?v0) ?v1) f1)) (= (not (= (f41 (f42 f50 ?v1) ?v0) f1)) (= ?v1 ?v0)))))
(assert (forall ((?v0 S11) (?v1 S11)) (or (= (f15 (f16 f52 ?v0) ?v1) f1) (or (= ?v0 ?v1) (= (f15 (f16 f52 ?v1) ?v0) f1)))))
(assert (forall ((?v0 S8) (?v1 S8)) (or (= (f38 (f39 f51 ?v0) ?v1) f1) (or (= ?v0 ?v1) (= (f38 (f39 f51 ?v1) ?v0) f1)))))
(assert (forall ((?v0 S3) (?v1 S3)) (or (= (f41 (f42 f50 ?v0) ?v1) f1) (or (= ?v0 ?v1) (= (f41 (f42 f50 ?v1) ?v0) f1)))))
(assert (forall ((?v0 S11) (?v1 S11)) (= (not (= (f15 (f16 f52 ?v0) ?v1) f1)) (or (= (f15 (f16 f52 ?v1) ?v0) f1) (= ?v0 ?v1)))))
(assert (forall ((?v0 S8) (?v1 S8)) (= (not (= (f38 (f39 f51 ?v0) ?v1) f1)) (or (= (f38 (f39 f51 ?v1) ?v0) f1) (= ?v0 ?v1)))))
(assert (forall ((?v0 S3) (?v1 S3)) (= (not (= (f41 (f42 f50 ?v0) ?v1) f1)) (or (= (f41 (f42 f50 ?v1) ?v0) f1) (= ?v0 ?v1)))))
(assert (forall ((?v0 S11) (?v1 S11)) (= (not (= ?v0 ?v1)) (or (= (f15 (f16 f52 ?v0) ?v1) f1) (= (f15 (f16 f52 ?v1) ?v0) f1)))))
(assert (forall ((?v0 S8) (?v1 S8)) (= (not (= ?v0 ?v1)) (or (= (f38 (f39 f51 ?v0) ?v1) f1) (= (f38 (f39 f51 ?v1) ?v0) f1)))))
(assert (forall ((?v0 S3) (?v1 S3)) (= (not (= ?v0 ?v1)) (or (= (f41 (f42 f50 ?v0) ?v1) f1) (= (f41 (f42 f50 ?v1) ?v0) f1)))))
(assert (forall ((?v0 S11)) (not (= (f15 (f16 f52 ?v0) ?v0) f1))))
(assert (forall ((?v0 S8)) (not (= (f38 (f39 f51 ?v0) ?v0) f1))))
(assert (forall ((?v0 S3)) (not (= (f41 (f42 f50 ?v0) ?v0) f1))))
(assert (forall ((?v0 S8) (?v1 S8)) (= (= (f15 (f16 f52 (f45 f46 ?v0)) (f45 f46 ?v1)) f1) (= (f38 (f39 f51 ?v0) ?v1) f1))))
(assert (forall ((?v0 S8) (?v1 S8)) (= (= (f38 (f39 f51 (f11 f44 ?v0)) (f11 f44 ?v1)) f1) (= (f38 (f39 f51 ?v0) ?v1) f1))))
(assert (forall ((?v0 S8) (?v1 S8) (?v2 S8)) (= (f11 (f53 f54 (f11 f44 ?v0)) (f11 (f53 f54 (f11 f44 ?v1)) ?v2)) (f11 (f53 f54 (f11 f44 (f11 (f53 f54 ?v0) ?v1))) ?v2))))
(assert (forall ((?v0 S8) (?v1 S8) (?v2 S4)) (= (f6 (f55 f56 (f47 f48 ?v0)) (f6 (f55 f56 (f47 f48 ?v1)) ?v2)) (f6 (f55 f56 (f47 f48 (f11 (f53 f54 ?v0) ?v1))) ?v2))))
(assert (forall ((?v0 S8) (?v1 S8) (?v2 S11)) (= (f27 (f57 f58 (f45 f46 ?v0)) (f27 (f57 f58 (f45 f46 ?v1)) ?v2)) (f27 (f57 f58 (f45 f46 (f11 (f53 f54 ?v0) ?v1))) ?v2))))
(assert (forall ((?v0 S8) (?v1 S8)) (= (f11 (f53 f54 (f11 f44 ?v0)) (f11 f44 ?v1)) (f11 f44 (f11 (f53 f54 ?v0) ?v1)))))
(assert (forall ((?v0 S8) (?v1 S8)) (= (f6 (f55 f56 (f47 f48 ?v0)) (f47 f48 ?v1)) (f47 f48 (f11 (f53 f54 ?v0) ?v1)))))
(assert (forall ((?v0 S8) (?v1 S8)) (= (f27 (f57 f58 (f45 f46 ?v0)) (f45 f46 ?v1)) (f45 f46 (f11 (f53 f54 ?v0) ?v1)))))
(assert (forall ((?v0 S8) (?v1 S8)) (= (f11 f44 (f11 (f53 f54 ?v0) ?v1)) (f11 (f53 f54 (f11 f44 ?v0)) (f11 f44 ?v1)))))
(assert (forall ((?v0 S8) (?v1 S8)) (= (f47 f48 (f11 (f53 f54 ?v0) ?v1)) (f6 (f55 f56 (f47 f48 ?v0)) (f47 f48 ?v1)))))
(assert (forall ((?v0 S8) (?v1 S8)) (= (f45 f46 (f11 (f53 f54 ?v0) ?v1)) (f27 (f57 f58 (f45 f46 ?v0)) (f45 f46 ?v1)))))
(assert (forall ((?v0 S11) (?v1 S11) (?v2 S11)) (let ((?v_0 (f16 f52 ?v2))) (=> (= (f15 (f16 f17 ?v0) ?v1) f1) (=> (= (f15 ?v_0 ?v0) f1) (= (f15 ?v_0 ?v1) f1))))))
(assert (forall ((?v0 S8) (?v1 S8) (?v2 S8)) (let ((?v_0 (f39 f51 ?v2))) (=> (= (f38 (f39 f40 ?v0) ?v1) f1) (=> (= (f38 ?v_0 ?v0) f1) (= (f38 ?v_0 ?v1) f1))))))
(assert (forall ((?v0 S3) (?v1 S3) (?v2 S3)) (let ((?v_0 (f42 f50 ?v2))) (=> (= (f41 (f42 f43 ?v0) ?v1) f1) (=> (= (f41 ?v_0 ?v0) f1) (= (f41 ?v_0 ?v1) f1))))))
(assert (forall ((?v0 S11) (?v1 S11) (?v2 S11)) (=> (= (f15 (f16 f17 ?v0) ?v1) f1) (=> (= (f15 (f16 f52 ?v1) ?v2) f1) (= (f15 (f16 f52 ?v0) ?v2) f1)))))
(assert (forall ((?v0 S8) (?v1 S8) (?v2 S8)) (=> (= (f38 (f39 f40 ?v0) ?v1) f1) (=> (= (f38 (f39 f51 ?v1) ?v2) f1) (= (f38 (f39 f51 ?v0) ?v2) f1)))))
(assert (forall ((?v0 S3) (?v1 S3) (?v2 S3)) (=> (= (f41 (f42 f43 ?v0) ?v1) f1) (=> (= (f41 (f42 f50 ?v1) ?v2) f1) (= (f41 (f42 f50 ?v0) ?v2) f1)))))
(assert (forall ((?v0 S11) (?v1 S11) (?v2 S11)) (=> (= (f15 (f16 f52 ?v0) ?v1) f1) (=> (= (f15 (f16 f17 ?v2) ?v0) f1) (= (f15 (f16 f52 ?v2) ?v1) f1)))))
(assert (forall ((?v0 S8) (?v1 S8) (?v2 S8)) (=> (= (f38 (f39 f51 ?v0) ?v1) f1) (=> (= (f38 (f39 f40 ?v2) ?v0) f1) (= (f38 (f39 f51 ?v2) ?v1) f1)))))
(assert (forall ((?v0 S3) (?v1 S3) (?v2 S3)) (=> (= (f41 (f42 f50 ?v0) ?v1) f1) (=> (= (f41 (f42 f43 ?v2) ?v0) f1) (= (f41 (f42 f50 ?v2) ?v1) f1)))))
(assert (forall ((?v0 S11) (?v1 S11) (?v2 S11)) (let ((?v_0 (f16 f52 ?v0))) (=> (= (f15 ?v_0 ?v1) f1) (=> (= (f15 (f16 f17 ?v1) ?v2) f1) (= (f15 ?v_0 ?v2) f1))))))
(assert (forall ((?v0 S8) (?v1 S8) (?v2 S8)) (let ((?v_0 (f39 f51 ?v0))) (=> (= (f38 ?v_0 ?v1) f1) (=> (= (f38 (f39 f40 ?v1) ?v2) f1) (= (f38 ?v_0 ?v2) f1))))))
(assert (forall ((?v0 S3) (?v1 S3) (?v2 S3)) (let ((?v_0 (f42 f50 ?v0))) (=> (= (f41 ?v_0 ?v1) f1) (=> (= (f41 (f42 f43 ?v1) ?v2) f1) (= (f41 ?v_0 ?v2) f1))))))
(assert (forall ((?v0 S11) (?v1 S11)) (=> (= (f15 (f16 f17 ?v0) ?v1) f1) (=> (not (= ?v1 ?v0)) (= (f15 (f16 f52 ?v0) ?v1) f1)))))
(assert (forall ((?v0 S8) (?v1 S8)) (=> (= (f38 (f39 f40 ?v0) ?v1) f1) (=> (not (= ?v1 ?v0)) (= (f38 (f39 f51 ?v0) ?v1) f1)))))
(assert (forall ((?v0 S3) (?v1 S3)) (=> (= (f41 (f42 f43 ?v0) ?v1) f1) (=> (not (= ?v1 ?v0)) (= (f41 (f42 f50 ?v0) ?v1) f1)))))
(assert (forall ((?v0 S11) (?v1 S11)) (=> (= (f15 (f16 f17 ?v0) ?v1) f1) (=> (not (= ?v0 ?v1)) (= (f15 (f16 f52 ?v0) ?v1) f1)))))
(assert (forall ((?v0 S8) (?v1 S8)) (=> (= (f38 (f39 f40 ?v0) ?v1) f1) (=> (not (= ?v0 ?v1)) (= (f38 (f39 f51 ?v0) ?v1) f1)))))
(assert (forall ((?v0 S3) (?v1 S3)) (=> (= (f41 (f42 f43 ?v0) ?v1) f1) (=> (not (= ?v0 ?v1)) (= (f41 (f42 f50 ?v0) ?v1) f1)))))
(assert (forall ((?v0 S11) (?v1 S11)) (=> (= (f15 (f16 f17 ?v0) ?v1) f1) (or (= (f15 (f16 f52 ?v0) ?v1) f1) (= ?v0 ?v1)))))
(assert (forall ((?v0 S8) (?v1 S8)) (=> (= (f38 (f39 f40 ?v0) ?v1) f1) (or (= (f38 (f39 f51 ?v0) ?v1) f1) (= ?v0 ?v1)))))
(assert (forall ((?v0 S3) (?v1 S3)) (=> (= (f41 (f42 f43 ?v0) ?v1) f1) (or (= (f41 (f42 f50 ?v0) ?v1) f1) (= ?v0 ?v1)))))
(assert (forall ((?v0 S11) (?v1 S11)) (=> (= (f15 (f16 f17 ?v0) ?v1) f1) (= (not (= (f15 (f16 f52 ?v0) ?v1) f1)) (= ?v0 ?v1)))))
(assert (forall ((?v0 S8) (?v1 S8)) (=> (= (f38 (f39 f40 ?v0) ?v1) f1) (= (not (= (f38 (f39 f51 ?v0) ?v1) f1)) (= ?v0 ?v1)))))
(assert (forall ((?v0 S3) (?v1 S3)) (=> (= (f41 (f42 f43 ?v0) ?v1) f1) (= (not (= (f41 (f42 f50 ?v0) ?v1) f1)) (= ?v0 ?v1)))))
(assert (forall ((?v0 S11) (?v1 S11)) (=> (= (f15 (f16 f52 ?v0) ?v1) f1) (= (f15 (f16 f17 ?v0) ?v1) f1))))
(assert (forall ((?v0 S8) (?v1 S8)) (=> (= (f38 (f39 f51 ?v0) ?v1) f1) (= (f38 (f39 f40 ?v0) ?v1) f1))))
(assert (forall ((?v0 S3) (?v1 S3)) (=> (= (f41 (f42 f50 ?v0) ?v1) f1) (= (f41 (f42 f43 ?v0) ?v1) f1))))
(assert (forall ((?v0 S11) (?v1 S11)) (=> (= (f15 (f16 f17 ?v0) ?v1) f1) (not (= (f15 (f16 f52 ?v1) ?v0) f1)))))
(assert (forall ((?v0 S8) (?v1 S8)) (=> (= (f38 (f39 f40 ?v0) ?v1) f1) (not (= (f38 (f39 f51 ?v1) ?v0) f1)))))
(assert (forall ((?v0 S3) (?v1 S3)) (=> (= (f41 (f42 f43 ?v0) ?v1) f1) (not (= (f41 (f42 f50 ?v1) ?v0) f1)))))
(assert (forall ((?v0 S11) (?v1 S11)) (=> (not (= ?v0 ?v1)) (=> (= (f15 (f16 f17 ?v1) ?v0) f1) (= (f15 (f16 f52 ?v1) ?v0) f1)))))
(assert (forall ((?v0 S8) (?v1 S8)) (=> (not (= ?v0 ?v1)) (=> (= (f38 (f39 f40 ?v1) ?v0) f1) (= (f38 (f39 f51 ?v1) ?v0) f1)))))
(assert (forall ((?v0 S3) (?v1 S3)) (=> (not (= ?v0 ?v1)) (=> (= (f41 (f42 f43 ?v1) ?v0) f1) (= (f41 (f42 f50 ?v1) ?v0) f1)))))
(assert (forall ((?v0 S11) (?v1 S11)) (=> (not (= ?v0 ?v1)) (=> (= (f15 (f16 f17 ?v0) ?v1) f1) (= (f15 (f16 f52 ?v0) ?v1) f1)))))
(assert (forall ((?v0 S8) (?v1 S8)) (=> (not (= ?v0 ?v1)) (=> (= (f38 (f39 f40 ?v0) ?v1) f1) (= (f38 (f39 f51 ?v0) ?v1) f1)))))
(assert (forall ((?v0 S3) (?v1 S3)) (=> (not (= ?v0 ?v1)) (=> (= (f41 (f42 f43 ?v0) ?v1) f1) (= (f41 (f42 f50 ?v0) ?v1) f1)))))
(assert (forall ((?v0 S11) (?v1 S11)) (=> (not (= (f15 (f16 f52 ?v0) ?v1) f1)) (= (= (f15 (f16 f17 ?v0) ?v1) f1) (= ?v0 ?v1)))))
(assert (forall ((?v0 S8) (?v1 S8)) (=> (not (= (f38 (f39 f51 ?v0) ?v1) f1)) (= (= (f38 (f39 f40 ?v0) ?v1) f1) (= ?v0 ?v1)))))
(assert (forall ((?v0 S3) (?v1 S3)) (=> (not (= (f41 (f42 f50 ?v0) ?v1) f1)) (= (= (f41 (f42 f43 ?v0) ?v1) f1) (= ?v0 ?v1)))))
(assert (forall ((?v0 S11) (?v1 S11)) (=> (not (= (f15 (f16 f17 ?v0) ?v1) f1)) (= (f15 (f16 f52 ?v1) ?v0) f1))))
(assert (forall ((?v0 S8) (?v1 S8)) (=> (not (= (f38 (f39 f40 ?v0) ?v1) f1)) (= (f38 (f39 f51 ?v1) ?v0) f1))))
(assert (forall ((?v0 S3) (?v1 S3)) (=> (not (= (f41 (f42 f43 ?v0) ?v1) f1)) (= (f41 (f42 f50 ?v1) ?v0) f1))))
(assert (forall ((?v0 S11) (?v1 S11)) (=> (not (= (f15 (f16 f52 ?v0) ?v1) f1)) (= (f15 (f16 f17 ?v1) ?v0) f1))))
(assert (forall ((?v0 S8) (?v1 S8)) (=> (not (= (f38 (f39 f51 ?v0) ?v1) f1)) (= (f38 (f39 f40 ?v1) ?v0) f1))))
(assert (forall ((?v0 S3) (?v1 S3)) (=> (not (= (f41 (f42 f50 ?v0) ?v1) f1)) (= (f41 (f42 f43 ?v1) ?v0) f1))))
(assert (forall ((?v0 S11) (?v1 S11)) (= (= (f15 (f16 f17 ?v0) ?v1) f1) (or (= (f15 (f16 f52 ?v0) ?v1) f1) (= ?v0 ?v1)))))
(assert (forall ((?v0 S8) (?v1 S8)) (= (= (f38 (f39 f40 ?v0) ?v1) f1) (or (= (f38 (f39 f51 ?v0) ?v1) f1) (= ?v0 ?v1)))))
(assert (forall ((?v0 S3) (?v1 S3)) (= (= (f41 (f42 f43 ?v0) ?v1) f1) (or (= (f41 (f42 f50 ?v0) ?v1) f1) (= ?v0 ?v1)))))
(assert (forall ((?v0 S11) (?v1 S11)) (= (= (f15 (f16 f52 ?v0) ?v1) f1) (and (= (f15 (f16 f17 ?v0) ?v1) f1) (not (= (f15 (f16 f17 ?v1) ?v0) f1))))))
(assert (forall ((?v0 S8) (?v1 S8)) (= (= (f38 (f39 f51 ?v0) ?v1) f1) (and (= (f38 (f39 f40 ?v0) ?v1) f1) (not (= (f38 (f39 f40 ?v1) ?v0) f1))))))
(assert (forall ((?v0 S3) (?v1 S3)) (= (= (f41 (f42 f50 ?v0) ?v1) f1) (and (= (f41 (f42 f43 ?v0) ?v1) f1) (not (= (f41 (f42 f43 ?v1) ?v0) f1))))))
(assert (forall ((?v0 S11) (?v1 S11)) (= (= (f15 (f16 f52 ?v0) ?v1) f1) (and (= (f15 (f16 f17 ?v0) ?v1) f1) (not (= ?v0 ?v1))))))
(assert (forall ((?v0 S8) (?v1 S8)) (= (= (f38 (f39 f51 ?v0) ?v1) f1) (and (= (f38 (f39 f40 ?v0) ?v1) f1) (not (= ?v0 ?v1))))))
(assert (forall ((?v0 S3) (?v1 S3)) (= (= (f41 (f42 f50 ?v0) ?v1) f1) (and (= (f41 (f42 f43 ?v0) ?v1) f1) (not (= ?v0 ?v1))))))
(assert (forall ((?v0 S11) (?v1 S11)) (or (= (f15 (f16 f17 ?v0) ?v1) f1) (= (f15 (f16 f52 ?v1) ?v0) f1))))
(assert (forall ((?v0 S8) (?v1 S8)) (or (= (f38 (f39 f40 ?v0) ?v1) f1) (= (f38 (f39 f51 ?v1) ?v0) f1))))
(assert (forall ((?v0 S3) (?v1 S3)) (or (= (f41 (f42 f43 ?v0) ?v1) f1) (= (f41 (f42 f50 ?v1) ?v0) f1))))
(assert (forall ((?v0 S11) (?v1 S11)) (= (not (= (f15 (f16 f17 ?v0) ?v1) f1)) (= (f15 (f16 f52 ?v1) ?v0) f1))))
(assert (forall ((?v0 S8) (?v1 S8)) (= (not (= (f38 (f39 f40 ?v0) ?v1) f1)) (= (f38 (f39 f51 ?v1) ?v0) f1))))
(assert (forall ((?v0 S3) (?v1 S3)) (= (not (= (f41 (f42 f43 ?v0) ?v1) f1)) (= (f41 (f42 f50 ?v1) ?v0) f1))))
(assert (forall ((?v0 S11) (?v1 S11)) (= (not (= (f15 (f16 f52 ?v0) ?v1) f1)) (= (f15 (f16 f17 ?v1) ?v0) f1))))
(assert (forall ((?v0 S8) (?v1 S8)) (= (not (= (f38 (f39 f51 ?v0) ?v1) f1)) (= (f38 (f39 f40 ?v1) ?v0) f1))))
(assert (forall ((?v0 S3) (?v1 S3)) (= (not (= (f41 (f42 f50 ?v0) ?v1) f1)) (= (f41 (f42 f43 ?v1) ?v0) f1))))
(assert (forall ((?v0 S8) (?v1 S3)) (let ((?v_0 (f33 (f34 f35 ?v0) ?v1))) (= (f11 (f53 f54 ?v_0) ?v0) (f11 (f53 f54 ?v0) ?v_0)))))
(assert (forall ((?v0 S3) (?v1 S3)) (let ((?v_0 (f29 (f30 f31 ?v0) ?v1))) (= (f29 (f30 f49 ?v_0) ?v0) (f29 (f30 f49 ?v0) ?v_0)))))
(assert (forall ((?v0 S11) (?v1 S3)) (let ((?v_0 (f24 (f25 f26 ?v0) ?v1))) (= (f27 (f57 f58 ?v_0) ?v0) (f27 (f57 f58 ?v0) ?v_0)))))
(assert (forall ((?v0 S4) (?v1 S3)) (let ((?v_0 (f3 (f4 f5 ?v0) ?v1))) (= (f6 (f55 f56 ?v_0) ?v0) (f6 (f55 f56 ?v0) ?v_0)))))
(assert (forall ((?v0 S8) (?v1 S8) (?v2 S3)) (= (f33 (f34 f35 (f11 (f53 f54 ?v0) ?v1)) ?v2) (f11 (f53 f54 (f33 (f34 f35 ?v0) ?v2)) (f33 (f34 f35 ?v1) ?v2)))))
(assert (forall ((?v0 S3) (?v1 S3) (?v2 S3)) (= (f29 (f30 f31 (f29 (f30 f49 ?v0) ?v1)) ?v2) (f29 (f30 f49 (f29 (f30 f31 ?v0) ?v2)) (f29 (f30 f31 ?v1) ?v2)))))
(assert (forall ((?v0 S11) (?v1 S11) (?v2 S3)) (= (f24 (f25 f26 (f27 (f57 f58 ?v0) ?v1)) ?v2) (f27 (f57 f58 (f24 (f25 f26 ?v0) ?v2)) (f24 (f25 f26 ?v1) ?v2)))))
(assert (forall ((?v0 S4) (?v1 S4) (?v2 S3)) (= (f3 (f4 f5 (f6 (f55 f56 ?v0) ?v1)) ?v2) (f6 (f55 f56 (f3 (f4 f5 ?v0) ?v2)) (f3 (f4 f5 ?v1) ?v2)))))
(assert (forall ((?v0 S8) (?v1 S3) (?v2 S3)) (let ((?v_0 (f34 f35 ?v0))) (= (f33 ?v_0 (f29 (f30 f49 ?v1) ?v2)) (f33 (f34 f35 (f33 ?v_0 ?v1)) ?v2)))))
(assert (forall ((?v0 S3) (?v1 S3) (?v2 S3)) (let ((?v_0 (f30 f31 ?v0))) (= (f29 ?v_0 (f29 (f30 f49 ?v1) ?v2)) (f29 (f30 f31 (f29 ?v_0 ?v1)) ?v2)))))
(assert (forall ((?v0 S11) (?v1 S3) (?v2 S3)) (let ((?v_0 (f25 f26 ?v0))) (= (f24 ?v_0 (f29 (f30 f49 ?v1) ?v2)) (f24 (f25 f26 (f24 ?v_0 ?v1)) ?v2)))))
(assert (forall ((?v0 S4) (?v1 S3) (?v2 S3)) (let ((?v_0 (f4 f5 ?v0))) (= (f3 ?v_0 (f29 (f30 f49 ?v1) ?v2)) (f3 (f4 f5 (f3 ?v_0 ?v1)) ?v2)))))
(assert (forall ((?v0 S3) (?v1 S8)) (let ((?v_1 (f42 f50 f32)) (?v_0 (f9 f10 ?v1))) (= (= (f41 ?v_1 (f29 (f30 f31 ?v0) ?v_0)) f1) (or (= ?v_0 f32) (= (f41 ?v_1 ?v0) f1))))))
(assert (forall ((?v0 S11) (?v1 S11)) (=> (= (f15 (f16 f52 ?v0) ?v1) f1) (= (f15 (f16 f52 (f27 f28 ?v0)) (f27 f28 ?v1)) f1))))
(assert (forall ((?v0 S11)) (let ((?v_0 (f16 f52 f18))) (=> (= (f15 ?v_0 ?v0) f1) (= (f15 ?v_0 (f27 f28 ?v0)) f1)))))
(assert (forall ((?v0 S11)) (=> (= (f15 (f16 f52 f18) ?v0) f1) (not (= (f27 f28 ?v0) f18)))))
(assert (forall ((?v0 S11) (?v1 S11)) (= (= (f15 (f16 f52 (f27 f28 ?v0)) (f27 f28 ?v1)) f1) (= (f15 (f16 f52 ?v0) ?v1) f1))))
(assert (forall ((?v0 S11)) (= (= (f15 (f16 f52 (f27 f28 ?v0)) f18) f1) (= (f15 (f16 f52 ?v0) f18) f1))))
(assert (forall ((?v0 S11)) (let ((?v_0 (f16 f52 f18))) (= (= (f15 ?v_0 (f27 f28 ?v0)) f1) (= (f15 ?v_0 ?v0) f1)))))
(assert (forall ((?v0 S8) (?v1 S8)) (let ((?v_0 (f39 f40 f14))) (=> (= (f38 ?v_0 ?v0) f1) (=> (= (f38 ?v_0 ?v1) f1) (= (f11 (f53 f54 (f11 f44 ?v0)) (f11 f44 ?v1)) (f11 f44 (f11 (f53 f54 ?v0) ?v1))))))))
(assert (forall ((?v0 S8) (?v1 S8)) (let ((?v_0 (f39 f40 f14))) (=> (= (f38 ?v_0 ?v0) f1) (=> (= (f38 ?v_0 ?v1) f1) (= (f29 (f30 f49 (f9 f10 ?v0)) (f9 f10 ?v1)) (f9 f10 (f11 (f53 f54 ?v0) ?v1))))))))
(assert (forall ((?v0 S8) (?v1 S8)) (let ((?v_0 (f39 f40 f14))) (=> (= (f38 ?v_0 ?v0) f1) (=> (= (f38 ?v_0 ?v1) f1) (= (f6 (f55 f56 (f47 f48 ?v0)) (f47 f48 ?v1)) (f47 f48 (f11 (f53 f54 ?v0) ?v1))))))))
(assert (forall ((?v0 S8) (?v1 S8)) (let ((?v_0 (f39 f40 f14))) (=> (= (f38 ?v_0 ?v0) f1) (=> (= (f38 ?v_0 ?v1) f1) (= (f27 (f57 f58 (f45 f46 ?v0)) (f45 f46 ?v1)) (f45 f46 (f11 (f53 f54 ?v0) ?v1))))))))
(assert (forall ((?v0 S8) (?v1 S8)) (= (= (f41 (f42 f50 (f9 f10 ?v0)) (f9 f10 ?v1)) f1) (ite (= (f38 (f39 f51 ?v0) ?v1) f1) (= (f38 (f39 f51 f14) ?v1) f1) false))))
(assert (forall ((?v0 S8)) (= (= (f41 (f42 f50 f32) (f9 f10 ?v0)) f1) (= (f38 (f39 f51 f14) ?v0) f1))))
(assert (forall ((?v0 S3) (?v1 S3) (?v2 S3)) (=> (= (f41 (f42 f50 ?v0) ?v1) f1) (=> (= (f41 (f42 f43 f32) ?v0) f1) (=> (= (f41 (f42 f50 f32) ?v2) f1) (= (f41 (f42 f50 (f29 (f30 f31 ?v0) ?v2)) (f29 (f30 f31 ?v1) ?v2)) f1))))))
(assert (forall ((?v0 S8) (?v1 S8) (?v2 S3)) (=> (= (f38 (f39 f51 ?v0) ?v1) f1) (=> (= (f38 (f39 f40 f36) ?v0) f1) (=> (= (f41 (f42 f50 f32) ?v2) f1) (= (f38 (f39 f51 (f33 (f34 f35 ?v0) ?v2)) (f33 (f34 f35 ?v1) ?v2)) f1))))))
(assert (forall ((?v0 S11) (?v1 S11) (?v2 S3)) (=> (= (f15 (f16 f52 ?v0) ?v1) f1) (=> (= (f15 (f16 f17 f18) ?v0) f1) (=> (= (f41 (f42 f50 f32) ?v2) f1) (= (f15 (f16 f52 (f24 (f25 f26 ?v0) ?v2)) (f24 (f25 f26 ?v1) ?v2)) f1))))))
(check-sat)
(exit)
